solution status: optimal solution found
objective value:                                 16.6
C1363                                               1 	(obj:0)
C1366                                               1 	(obj:0)
C1370                                               1 	(obj:0)
C1374                                               1 	(obj:0)
C1380                                               1 	(obj:0)
C1385                                               1 	(obj:0)
C1388                                               1 	(obj:0)
C1392                                               1 	(obj:0)
C1396                                               1 	(obj:0)
C1401                                               1 	(obj:0)
C1405                                               1 	(obj:0)
C1420                                               1 	(obj:-1)
C1499                                               1 	(obj:-1)
C1560                                               1 	(obj:-1)
C1647                                               1 	(obj:-1)
C1765                                               1 	(obj:-0.9)
C1794                                               1 	(obj:-1)
C1882                                               1 	(obj:-1)
C1964                                               1 	(obj:-0.9)
C2037                                               1 	(obj:-0.9)
C2170                                               1 	(obj:-1)
C2593                                               1 	(obj:-1)
C3055                                               1 	(obj:-1)
C3448                                               1 	(obj:-1)
C3800                                               1 	(obj:-1)
C4317                                               1 	(obj:-1)
C4763                                               1 	(obj:-1)
C5211                                               1 	(obj:-1)
C5657                                               1 	(obj:-0.9)
C6211                                               1 	(obj:-0.9)
C6351                                               1 	(obj:-1)
C6489                                               1 	(obj:-1)
C7030                                               1 	(obj:-1)
C7223                                               1 	(obj:-1)
C7331                                               1 	(obj:-1)
C7429                                               1 	(obj:-1)
C7536                                               1 	(obj:-1)
C7635                                               1 	(obj:-1)
C7726                                               1 	(obj:-1)
C7769                                               1 	(obj:-1)
C8403                                               1 	(obj:-1)
C8732                                               1 	(obj:-1)
C8866                                               1 	(obj:-0.9)
C8898                                               1 	(obj:-1)
C8970                                               1 	(obj:-1)
C9027                                               1 	(obj:-1)
C9085                                               1 	(obj:-1)
C9108                                               1 	(obj:-1)
C9110                                               1 	(obj:-1)
C9155                                               1 	(obj:-5)
C9197                                               1 	(obj:-5)
C9250                                               1 	(obj:-5)
C9300                                               1 	(obj:-5)
C9393                                               1 	(obj:-5)
C9436                                               1 	(obj:-5)
C9491                                               1 	(obj:-5)
C9555                                               1 	(obj:-5)
C9618                                               1 	(obj:-5)
C9712                                               1 	(obj:-1)
C9752                                               1 	(obj:-1)
C9803                                               1 	(obj:-1)
C1024                                               1 	(obj:0)
C1348                                               2 	(obj:1)
C0016                                               3 	(obj:0)
C0018                                               2 	(obj:0)
C0019                                               3 	(obj:0)
C0021                                               3 	(obj:0)
C0022                                               2 	(obj:0)
C0023                                               3 	(obj:0)
C0025                                               3 	(obj:0)
C0026                                               2 	(obj:0)
C0027                                               3 	(obj:0)
C0029                                               4 	(obj:0)
C0030                                               2 	(obj:0)
C0031                                               4 	(obj:0)
C0032                                               3 	(obj:0)
C0033                                               3 	(obj:0)
C0035                                               3 	(obj:0)
C0036                                               3 	(obj:0)
C0037                                               2 	(obj:0)
C0038                                               2 	(obj:0)
C0040                                               3 	(obj:0)
C0041                                               3 	(obj:0)
C0042                                               3 	(obj:0)
C0044                                               3 	(obj:0)
C0045                                               3 	(obj:0)
C0046                                               3 	(obj:0)
C0048                                               2 	(obj:0)
C0049                                               3 	(obj:0)
C0050                                               2 	(obj:0)
C0051                                               2 	(obj:0)
C0053                                               2 	(obj:0)
C0054                                               2 	(obj:0)
C0055                                               3 	(obj:0)
C0057                                               3 	(obj:0)
C0058                                               1 	(obj:0)
C0074                                               1 	(obj:100)
C0295                                               1 	(obj:0)
